c description: Random 3-CNF over 18 variables and 77 clauses
c generator: CNFgen (0.9.2)
c copyright: (C) 2012-2022 Massimo Lauria <massimo.lauria@uniroma1.it>
c url: https://massimolauria.net/cnfgen
c command line: cnfgen --output CNF_4.28/18_bit_77_434.cnf randkcnf 3 18 77
c
p cnf 18 77
-2 4 15 0
3 5 -9 0
2 14 -16 0
10 15 18 0
7 17 -18 0
-4 9 12 0
-1 4 5 0
-3 -10 13 0
-8 9 18 0
-2 3 16 0
4 8 -15 0
-2 -5 -8 0
9 10 -14 0
4 -8 10 0
4 -12 -18 0
3 -8 9 0
4 -8 13 0
-2 7 18 0
3 10 11 0
7 -10 -14 0
1 -11 -18 0
-3 -4 18 0
14 -15 16 0
9 16 17 0
-1 7 -16 0
1 7 18 0
-1 13 17 0
5 6 -10 0
-4 12 17 0
-9 -10 -13 0
4 -8 14 0
4 -7 14 0
-4 -11 16 0
10 11 -12 0
3 -5 12 0
-2 10 -15 0
3 -9 17 0
5 6 -18 0
9 13 -17 0
1 5 17 0
-8 9 12 0
1 8 14 0
6 -13 -16 0
1 2 -7 0
3 5 14 0
7 15 -18 0
4 9 -13 0
8 -12 18 0
-5 -8 11 0
7 10 -16 0
6 11 14 0
-12 -16 17 0
-7 -8 -18 0
-5 7 -16 0
-1 14 -17 0
8 16 -18 0
-5 -17 -18 0
1 5 12 0
-1 5 -7 0
8 -9 16 0
-2 3 -9 0
3 -9 16 0
10 -14 -17 0
1 -2 -17 0
-1 16 17 0
-4 14 16 0
-8 -13 16 0
12 13 -14 0
-9 14 -18 0
9 14 -15 0
-8 -15 -18 0
2 16 18 0
-4 11 18 0
3 -7 -9 0
-1 -4 -14 0
6 12 -15 0
-6 9 -12 0
